data;
param nombreJob := 7;
param nombreRessource := 3;
param duree := 1 4 2 6 3 6 4 1 5 9 6 6 7 7;
param capaciteRessource := 1 7 2 16 3 18;
param besoinRessource : 1 2 3 :=
                    1   1 3 10
                    2   3 7 8
                    3   1 7 4
                    4   2 7 6
                    5   2 8 2
                    6   3 8 6
                    7   4 1 3;
end;

